p tw 149 171
1 2
2 62
3 14
4 5
5 6
6 7
7 8
8 9
9 10
10 11
11 12
12 13
13 15
14 25
15 16
16 17
17 18
18 19
19 20
20 21
21 22
22 23
23 24
24 26
25 36
26 27
27 28
28 29
29 30
29 65
30 31
30 65
31 32
32 24
33 34
34 35
34 38
35 37
36 47
37 41
38 39
39 40
40 41
41 42
42 43
42 45
43 44
43 45
44 45
45 46
46 55
47 57
48 49
49 50
49 51
50 51
51 52
52 53
53 54
54 55
55 56
57 58
58 59
59 60
60 61
61 63
62 73
63 64
64 65
65 66
66 67
66 69
67 68
68 69
69 70
70 71
71 72
72 74
73 84
74 75
74 76
75 76
76 77
77 78
77 81
78 79
79 80
80 81
81 82
82 83
83 85
84 95
85 86
86 87
86 89
87 88
88 81
89 90
90 91
91 92
92 93
92 33
93 94
93 97
94 96
95 106
96 48
97 98
98 99
99 100
100 101
101 102
102 103
103 104
104 105
104 108
105 107
106 117
106 3
107 48
108 109
109 110
110 111
111 112
112 113
112 115
113 114
114 48
115 116
116 118
117 128
118 119
119 120
120 121
121 122
121 130
122 123
123 124
124 125
125 126
125 19
126 127
127 129
128 139
129 130
129 19
130 131
131 132
132 133
133 134
134 135
134 19
135 136
136 137
137 138
138 140
138 19
139 36
140 141
141 142
142 143
143 144
143 145
144 145
144 19
145 146
146 147
146 4
147 148
148 149
149 65
